p cnf 370 1040
 5  -3 0 
 5  4 0 
 -5  3  -4 0 
 -6  -2 0 
 -6  5 0 
 6  2  -5 0 
 7  -1 0 
 7  -6 0 
 -7  1  6 0 
 8  -2 0 
 8  -3 0 
 -8  2  3 0 
 -9  -1 0 
 -9  8 0 
 9  1  -8 0 
 10  -1 0 
 10  -8 0 
 -10  1  8 0 
 -11  -2 0 
 -11  -3 0 
 11  2  3 0 
 -12  -1 0 
 -12  11 0 
 12  1  -11 0 
 -13  10 0 
 -13  -12 0 
 13  -10  12 0 
 -14  -9 0 
 -14  13 0 
 14  9  -13 0 
 -15  7 0 
 -15  14 0 
 15  -7  -14 0 
 20  -18 0 
 20  19 0 
 -20  18  -19 0 
 -21  -17 0 
 -21  20 0 
 21  17  -20 0 
 22  -16 0 
 22  -21 0 
 -22  16  21 0 
 23  -17 0 
 23  -18 0 
 -23  17  18 0 
 -24  -16 0 
 -24  23 0 
 24  16  -23 0 
 25  -16 0 
 25  -23 0 
 -25  16  23 0 
 -26  -17 0 
 -26  -18 0 
 26  17  18 0 
 -27  -16 0 
 -27  26 0 
 27  16  -26 0 
 -28  25 0 
 -28  -27 0 
 28  -25  27 0 
 -29  -24 0 
 -29  28 0 
 29  24  -28 0 
 -30  22 0 
 -30  29 0 
 30  -22  -29 0 
 -32  30 0 
 -32  31 0 
 32  -30  -31 0 
 -33  -25 0 
 -33  27 0 
 33  25  -27 0 
 -34  -24 0 
 -34  33 0 
 34  24  -33 0 
 -35  22 0 
 -35  34 0 
 35  -22  -34 0 
 -36  35 0 
 -36  31 0 
 36  -35  -31 0 
 -37  -35 0 
 -37  31 0 
 37  35  -31 0 
 38  -36 0 
 38  -37 0 
 -38  36  37 0 
 -39  -30 0 
 -39  38 0 
 39  30  -38 0 
 40  -32 0 
 40  -39 0 
 -40  32  39 0 
 -41  15 0 
 -41  40 0 
 41  -15  -40 0 
 -42  -10 0 
 -42  12 0 
 42  10  -12 0 
 -43  -9 0 
 -43  42 0 
 43  9  -42 0 
 -44  7 0 
 -44  43 0 
 44  -7  -43 0 
 -45  44 0 
 -45  40 0 
 45  -44  -40 0 
 -46  -44 0 
 -46  40 0 
 46  44  -40 0 
 47  -45 0 
 47  -46 0 
 -47  45  46 0 
 -48  -15 0 
 -48  47 0 
 48  15  -47 0 
 49  -41 0 
 49  -48 0 
 -49  41  48 0 
 -50  49 0 
 -50  40 0 
 50  -49  -40 0 
 -51  -49 0 
 -51  -40 0 
 51  49  40 0 
 52  -50 0 
 52  -51 0 
 -52  50  51 0 
 -54  30 0 
 -54  53 0 
 54  -30  -53 0 
 -55  35 0 
 -55  53 0 
 55  -35  -53 0 
 -56  -35 0 
 -56  53 0 
 56  35  -53 0 
 57  -55 0 
 57  -56 0 
 -57  55  56 0 
 -58  -30 0 
 -58  57 0 
 58  30  -57 0 
 59  -54 0 
 59  -58 0 
 -59  54  58 0 
 -60  15 0 
 -60  59 0 
 60  -15  -59 0 
 -61  44 0 
 -61  59 0 
 61  -44  -59 0 
 -62  -44 0 
 -62  59 0 
 62  44  -59 0 
 63  -61 0 
 63  -62 0 
 -63  61  62 0 
 -64  -15 0 
 -64  63 0 
 64  15  -63 0 
 65  -60 0 
 65  -64 0 
 -65  60  64 0 
 -66  65 0 
 -66  59 0 
 66  -65  -59 0 
 -67  -65 0 
 -67  -59 0 
 67  65  59 0 
 68  -66 0 
 68  -67 0 
 -68  66  67 0 
 -70  30 0 
 -70  69 0 
 70  -30  -69 0 
 -71  35 0 
 -71  69 0 
 71  -35  -69 0 
 -72  -35 0 
 -72  69 0 
 72  35  -69 0 
 73  -71 0 
 73  -72 0 
 -73  71  72 0 
 -74  -30 0 
 -74  73 0 
 74  30  -73 0 
 75  -70 0 
 75  -74 0 
 -75  70  74 0 
 -76  15 0 
 -76  75 0 
 76  -15  -75 0 
 -77  44 0 
 -77  75 0 
 77  -44  -75 0 
 -78  -44 0 
 -78  75 0 
 78  44  -75 0 
 79  -77 0 
 79  -78 0 
 -79  77  78 0 
 -80  -15 0 
 -80  79 0 
 80  15  -79 0 
 81  -76 0 
 81  -80 0 
 -81  76  80 0 
 -82  81 0 
 -82  75 0 
 82  -81  -75 0 
 -83  -81 0 
 -83  -75 0 
 83  81  75 0 
 84  -82 0 
 84  -83 0 
 -84  82  83 0 
 -86  30 0 
 -86  85 0 
 86  -30  -85 0 
 -87  35 0 
 -87  85 0 
 87  -35  -85 0 
 -88  -35 0 
 -88  85 0 
 88  35  -85 0 
 89  -87 0 
 89  -88 0 
 -89  87  88 0 
 -90  -30 0 
 -90  89 0 
 90  30  -89 0 
 91  -86 0 
 91  -90 0 
 -91  86  90 0 
 -92  15 0 
 -92  91 0 
 92  -15  -91 0 
 -93  44 0 
 -93  91 0 
 93  -44  -91 0 
 -94  -44 0 
 -94  91 0 
 94  44  -91 0 
 95  -93 0 
 95  -94 0 
 -95  93  94 0 
 -96  -15 0 
 -96  95 0 
 96  15  -95 0 
 97  -92 0 
 97  -96 0 
 -97  92  96 0 
 -98  97 0 
 -98  91 0 
 98  -97  -91 0 
 -99  -97 0 
 -99  -91 0 
 99  97  91 0 
 100  -98 0 
 100  -99 0 
 -100  98  99 0 
 -102  30 0 
 -102  101 0 
 102  -30  -101 0 
 -103  35 0 
 -103  101 0 
 103  -35  -101 0 
 -104  -35 0 
 -104  101 0 
 104  35  -101 0 
 105  -103 0 
 105  -104 0 
 -105  103  104 0 
 -106  -30 0 
 -106  105 0 
 106  30  -105 0 
 107  -102 0 
 107  -106 0 
 -107  102  106 0 
 -108  15 0 
 -108  107 0 
 108  -15  -107 0 
 -109  44 0 
 -109  107 0 
 109  -44  -107 0 
 -110  -44 0 
 -110  107 0 
 110  44  -107 0 
 111  -109 0 
 111  -110 0 
 -111  109  110 0 
 -112  -15 0 
 -112  111 0 
 112  15  -111 0 
 113  -108 0 
 113  -112 0 
 -113  108  112 0 
 -114  113 0 
 -114  107 0 
 114  -113  -107 0 
 -115  -113 0 
 -115  -107 0 
 115  113  107 0 
 116  -114 0 
 116  -115 0 
 -116  114  115 0 
 -118  30 0 
 -118  117 0 
 118  -30  -117 0 
 -119  35 0 
 -119  117 0 
 119  -35  -117 0 
 -120  -35 0 
 -120  117 0 
 120  35  -117 0 
 121  -119 0 
 121  -120 0 
 -121  119  120 0 
 -122  -30 0 
 -122  121 0 
 122  30  -121 0 
 123  -118 0 
 123  -122 0 
 -123  118  122 0 
 -124  15 0 
 -124  123 0 
 124  -15  -123 0 
 -125  44 0 
 -125  123 0 
 125  -44  -123 0 
 -126  -44 0 
 -126  123 0 
 126  44  -123 0 
 127  -125 0 
 127  -126 0 
 -127  125  126 0 
 -128  -15 0 
 -128  127 0 
 128  15  -127 0 
 129  -124 0 
 129  -128 0 
 -129  124  128 0 
 -130  129 0 
 -130  123 0 
 130  -129  -123 0 
 -131  -129 0 
 -131  -123 0 
 131  129  123 0 
 132  -130 0 
 132  -131 0 
 -132  130  131 0 
 -134  30 0 
 -134  133 0 
 134  -30  -133 0 
 -135  35 0 
 -135  133 0 
 135  -35  -133 0 
 -136  -35 0 
 -136  133 0 
 136  35  -133 0 
 137  -135 0 
 137  -136 0 
 -137  135  136 0 
 -138  -30 0 
 -138  137 0 
 138  30  -137 0 
 139  -134 0 
 139  -138 0 
 -139  134  138 0 
 -140  15 0 
 -140  139 0 
 140  -15  -139 0 
 -141  44 0 
 -141  139 0 
 141  -44  -139 0 
 -142  -44 0 
 -142  139 0 
 142  44  -139 0 
 143  -141 0 
 143  -142 0 
 -143  141  142 0 
 -144  -15 0 
 -144  143 0 
 144  15  -143 0 
 145  -140 0 
 145  -144 0 
 -145  140  144 0 
 -146  145 0 
 -146  139 0 
 146  -145  -139 0 
 -147  -145 0 
 -147  -139 0 
 147  145  139 0 
 148  -146 0 
 148  -147 0 
 -148  146  147 0 
 -150  30 0 
 -150  149 0 
 150  -30  -149 0 
 -151  35 0 
 -151  149 0 
 151  -35  -149 0 
 -152  -35 0 
 -152  149 0 
 152  35  -149 0 
 153  -151 0 
 153  -152 0 
 -153  151  152 0 
 -154  -30 0 
 -154  153 0 
 154  30  -153 0 
 155  -150 0 
 155  -154 0 
 -155  150  154 0 
 -156  15 0 
 -156  155 0 
 156  -15  -155 0 
 -157  44 0 
 -157  155 0 
 157  -44  -155 0 
 -158  -44 0 
 -158  155 0 
 158  44  -155 0 
 159  -157 0 
 159  -158 0 
 -159  157  158 0 
 -160  -15 0 
 -160  159 0 
 160  15  -159 0 
 161  -156 0 
 161  -160 0 
 -161  156  160 0 
 -162  161 0 
 -162  155 0 
 162  -161  -155 0 
 -163  -161 0 
 -163  -155 0 
 163  161  155 0 
 164  -162 0 
 164  -163 0 
 -164  162  163 0 
 -166  30 0 
 -166  165 0 
 166  -30  -165 0 
 -167  35 0 
 -167  165 0 
 167  -35  -165 0 
 -168  -35 0 
 -168  165 0 
 168  35  -165 0 
 169  -167 0 
 169  -168 0 
 -169  167  168 0 
 -170  -30 0 
 -170  169 0 
 170  30  -169 0 
 171  -166 0 
 171  -170 0 
 -171  166  170 0 
 -172  15 0 
 -172  171 0 
 172  -15  -171 0 
 -173  44 0 
 -173  171 0 
 173  -44  -171 0 
 -174  -44 0 
 -174  171 0 
 174  44  -171 0 
 175  -173 0 
 175  -174 0 
 -175  173  174 0 
 -176  -15 0 
 -176  175 0 
 176  15  -175 0 
 177  -172 0 
 177  -176 0 
 -177  172  176 0 
 -178  177 0 
 -178  171 0 
 178  -177  -171 0 
 -179  -177 0 
 -179  -171 0 
 179  177  171 0 
 180  -178 0 
 180  -179 0 
 -180  178  179 0 
 -182  30 0 
 -182  181 0 
 182  -30  -181 0 
 -183  35 0 
 -183  181 0 
 183  -35  -181 0 
 -184  -35 0 
 -184  181 0 
 184  35  -181 0 
 185  -183 0 
 185  -184 0 
 -185  183  184 0 
 -186  -30 0 
 -186  185 0 
 186  30  -185 0 
 187  -182 0 
 187  -186 0 
 -187  182  186 0 
 -188  15 0 
 -188  187 0 
 188  -15  -187 0 
 -189  44 0 
 -189  187 0 
 189  -44  -187 0 
 -190  -44 0 
 -190  187 0 
 190  44  -187 0 
 191  -189 0 
 191  -190 0 
 -191  189  190 0 
 -192  -15 0 
 -192  191 0 
 192  15  -191 0 
 193  -188 0 
 193  -192 0 
 -193  188  192 0 
 -194  193 0 
 -194  187 0 
 194  -193  -187 0 
 -195  -193 0 
 -195  -187 0 
 195  193  187 0 
 196  -194 0 
 196  -195 0 
 -196  194  195 0 
 -198  30 0 
 -198  197 0 
 198  -30  -197 0 
 -199  35 0 
 -199  197 0 
 199  -35  -197 0 
 -200  -35 0 
 -200  197 0 
 200  35  -197 0 
 201  -199 0 
 201  -200 0 
 -201  199  200 0 
 -202  -30 0 
 -202  201 0 
 202  30  -201 0 
 203  -198 0 
 203  -202 0 
 -203  198  202 0 
 -204  15 0 
 -204  203 0 
 204  -15  -203 0 
 -205  44 0 
 -205  203 0 
 205  -44  -203 0 
 -206  -44 0 
 -206  203 0 
 206  44  -203 0 
 207  -205 0 
 207  -206 0 
 -207  205  206 0 
 -208  -15 0 
 -208  207 0 
 208  15  -207 0 
 209  -204 0 
 209  -208 0 
 -209  204  208 0 
 -210  209 0 
 -210  203 0 
 210  -209  -203 0 
 -211  -209 0 
 -211  -203 0 
 211  209  203 0 
 212  -210 0 
 212  -211 0 
 -212  210  211 0 
 -214  30 0 
 -214  213 0 
 214  -30  -213 0 
 -215  35 0 
 -215  213 0 
 215  -35  -213 0 
 -216  -35 0 
 -216  213 0 
 216  35  -213 0 
 217  -215 0 
 217  -216 0 
 -217  215  216 0 
 -218  -30 0 
 -218  217 0 
 218  30  -217 0 
 219  -214 0 
 219  -218 0 
 -219  214  218 0 
 -220  15 0 
 -220  219 0 
 220  -15  -219 0 
 -221  44 0 
 -221  219 0 
 221  -44  -219 0 
 -222  -44 0 
 -222  219 0 
 222  44  -219 0 
 223  -221 0 
 223  -222 0 
 -223  221  222 0 
 -224  -15 0 
 -224  223 0 
 224  15  -223 0 
 225  -220 0 
 225  -224 0 
 -225  220  224 0 
 -226  225 0 
 -226  219 0 
 226  -225  -219 0 
 -227  -225 0 
 -227  -219 0 
 227  225  219 0 
 228  -226 0 
 228  -227 0 
 -228  226  227 0 
 -230  30 0 
 -230  229 0 
 230  -30  -229 0 
 -231  35 0 
 -231  229 0 
 231  -35  -229 0 
 -232  -35 0 
 -232  229 0 
 232  35  -229 0 
 233  -231 0 
 233  -232 0 
 -233  231  232 0 
 -234  -30 0 
 -234  233 0 
 234  30  -233 0 
 235  -230 0 
 235  -234 0 
 -235  230  234 0 
 -236  15 0 
 -236  235 0 
 236  -15  -235 0 
 -237  44 0 
 -237  235 0 
 237  -44  -235 0 
 -238  -44 0 
 -238  235 0 
 238  44  -235 0 
 239  -237 0 
 239  -238 0 
 -239  237  238 0 
 -240  -15 0 
 -240  239 0 
 240  15  -239 0 
 241  -236 0 
 241  -240 0 
 -241  236  240 0 
 -242  241 0 
 -242  235 0 
 242  -241  -235 0 
 -243  -241 0 
 -243  -235 0 
 243  241  235 0 
 244  -242 0 
 244  -243 0 
 -244  242  243 0 
 -246  30 0 
 -246  245 0 
 246  -30  -245 0 
 -247  35 0 
 -247  245 0 
 247  -35  -245 0 
 -248  -35 0 
 -248  245 0 
 248  35  -245 0 
 249  -247 0 
 249  -248 0 
 -249  247  248 0 
 -250  -30 0 
 -250  249 0 
 250  30  -249 0 
 251  -246 0 
 251  -250 0 
 -251  246  250 0 
 -252  15 0 
 -252  251 0 
 252  -15  -251 0 
 -253  44 0 
 -253  251 0 
 253  -44  -251 0 
 -254  -44 0 
 -254  251 0 
 254  44  -251 0 
 255  -253 0 
 255  -254 0 
 -255  253  254 0 
 -256  -15 0 
 -256  255 0 
 256  15  -255 0 
 257  -252 0 
 257  -256 0 
 -257  252  256 0 
 -258  257 0 
 -258  251 0 
 258  -257  -251 0 
 -259  -257 0 
 -259  -251 0 
 259  257  251 0 
 260  -258 0 
 260  -259 0 
 -260  258  259 0 
 -262  30 0 
 -262  261 0 
 262  -30  -261 0 
 -263  35 0 
 -263  261 0 
 263  -35  -261 0 
 -264  -35 0 
 -264  261 0 
 264  35  -261 0 
 265  -263 0 
 265  -264 0 
 -265  263  264 0 
 -266  -30 0 
 -266  265 0 
 266  30  -265 0 
 267  -262 0 
 267  -266 0 
 -267  262  266 0 
 -268  15 0 
 -268  267 0 
 268  -15  -267 0 
 -269  44 0 
 -269  267 0 
 269  -44  -267 0 
 -270  -44 0 
 -270  267 0 
 270  44  -267 0 
 271  -269 0 
 271  -270 0 
 -271  269  270 0 
 -272  -15 0 
 -272  271 0 
 272  15  -271 0 
 273  -268 0 
 273  -272 0 
 -273  268  272 0 
 -274  273 0 
 -274  267 0 
 274  -273  -267 0 
 -275  -273 0 
 -275  -267 0 
 275  273  267 0 
 276  -274 0 
 276  -275 0 
 -276  274  275 0 
 -278  30 0 
 -278  277 0 
 278  -30  -277 0 
 -279  35 0 
 -279  277 0 
 279  -35  -277 0 
 -280  -35 0 
 -280  277 0 
 280  35  -277 0 
 281  -279 0 
 281  -280 0 
 -281  279  280 0 
 -282  -30 0 
 -282  281 0 
 282  30  -281 0 
 283  -278 0 
 283  -282 0 
 -283  278  282 0 
 -284  15 0 
 -284  283 0 
 284  -15  -283 0 
 -285  44 0 
 -285  283 0 
 285  -44  -283 0 
 -286  -44 0 
 -286  283 0 
 286  44  -283 0 
 287  -285 0 
 287  -286 0 
 -287  285  286 0 
 -288  -15 0 
 -288  287 0 
 288  15  -287 0 
 289  -284 0 
 289  -288 0 
 -289  284  288 0 
 -290  289 0 
 -290  283 0 
 290  -289  -283 0 
 -291  -289 0 
 -291  -283 0 
 291  289  283 0 
 292  -290 0 
 292  -291 0 
 -292  290  291 0 
 -293  276 0 
 -293  292 0 
 293  -276  -292 0 
 -294  260 0 
 -294  293 0 
 294  -260  -293 0 
 -295  244 0 
 -295  294 0 
 295  -244  -294 0 
 -296  228 0 
 -296  295 0 
 296  -228  -295 0 
 -297  212 0 
 -297  296 0 
 297  -212  -296 0 
 -298  196 0 
 -298  297 0 
 298  -196  -297 0 
 -299  180 0 
 -299  298 0 
 299  -180  -298 0 
 -300  164 0 
 -300  299 0 
 300  -164  -299 0 
 -301  148 0 
 -301  300 0 
 301  -148  -300 0 
 -302  132 0 
 -302  301 0 
 302  -132  -301 0 
 -303  116 0 
 -303  302 0 
 303  -116  -302 0 
 -304  100 0 
 -304  303 0 
 304  -100  -303 0 
 -305  84 0 
 -305  304 0 
 305  -84  -304 0 
 -306  68 0 
 -306  305 0 
 306  -68  -305 0 
 -307  52 0 
 -307  306 0 
 307  -52  -306 0 
 -307 0 
